30 1 5
892 534 974 786 829 322 579 63 291 316 78 365 556 716 320 345 944 757 468 786 608 842 51 153 785 970 802 577 890 273 
971 133 159 944 918 339 618 496 402 908 163 479 272 70 546 944 766 489 52 233 627 659 427 677 811 563 647 965 139 888 
237 109 20 747 405 938 86 22 785 487 929 300 965 553 721 862 848 487 351 899 71 977 910 497 653 72 59 651 388 197 
538 625 658 558 723 62 847 808 435 983 294 363 282 610 267 355 824 114 193 174 365 263 502 626 112 506 697 170 157 85 
719 46 61 728 603 783 141 449 943 575 432 588 937 65 550 556 419 373 21 963 898 737 226 399 362 337 256 59 858 412 
4950 9280 4580 5550 6550 4120 6890 7950 2130 6310 3690 9960 5710 6580 600 1200 5650 8310 4920 5850 7930 3890 3220 3700 7870 6830 580 3940 930 9160 
79410
